jobs  (incl. supersource/sink ):	52
RESOURCES
- renewable                 : 4 R
- nonrenewable              : 2 N
- doubly constrained        : 0 D
************************************************************************
PRECEDENCE RELATIONS:
jobnr.    #modes  #successors   successors
1	1	9		2 3 4 5 6 7 8 10 16 
2	9	9		29 25 22 21 20 19 17 13 12 
3	9	7		33 27 22 17 14 12 9 
4	9	7		33 28 25 23 18 17 14 
5	9	5		28 23 21 17 11 
6	9	7		37 28 27 21 17 15 14 
7	9	4		30 25 21 12 
8	9	6		43 37 28 27 25 17 
9	9	4		38 24 21 18 
10	9	7		43 38 37 30 27 24 22 
11	9	3		37 30 13 
12	9	7		44 38 37 35 32 26 24 
13	9	7		44 43 34 33 31 27 26 
14	9	6		44 38 35 32 26 24 
15	9	6		43 38 32 30 26 24 
16	9	5		44 35 33 26 24 
17	9	5		44 35 32 26 24 
18	9	8		50 44 43 40 37 31 30 29 
19	9	7		44 43 37 35 34 31 26 
20	9	5		43 38 35 30 27 
21	9	5		51 43 35 31 26 
22	9	4		49 34 32 26 
23	9	4		50 38 34 27 
24	9	7		51 50 42 40 36 34 31 
25	9	4		51 50 34 31 
26	9	7		50 48 46 42 40 39 36 
27	9	7		51 49 46 42 40 39 36 
28	9	7		51 49 48 47 46 42 39 
29	9	6		49 48 46 42 39 36 
30	9	5		51 48 46 39 36 
31	9	4		49 47 46 39 
32	9	4		51 50 48 39 
33	9	2		46 38 
34	9	2		48 39 
35	9	3		50 46 45 
36	9	2		47 41 
37	9	2		46 41 
38	9	1		39 
39	9	1		41 
40	9	1		41 
41	9	1		45 
42	9	1		45 
43	9	1		45 
44	9	1		46 
45	9	1		52 
46	9	1		52 
47	9	1		52 
48	9	1		52 
49	9	1		52 
50	9	1		52 
51	9	1		52 
52	1	0		
************************************************************************
REQUESTS/DURATIONS
jobnr.	mode	dur	R1	R2	R3	R4	N1	N2	
------------------------------------------------------------------------
1	1	0	0	0	0	0	0	0	
2	1	12	1	4	1	3	24	27	
	2	13	1	4	1	3	22	25	
	3	14	1	4	1	3	22	22	
	4	15	1	4	1	3	21	19	
	5	16	1	4	1	3	18	14	
	6	17	1	4	1	2	16	12	
	7	19	1	4	1	2	16	11	
	8	24	1	4	1	2	14	5	
	9	25	1	4	1	2	11	5	
3	1	2	4	1	4	4	22	23	
	2	5	4	1	3	4	22	21	
	3	9	4	1	3	4	22	19	
	4	10	4	1	3	3	22	18	
	5	17	4	1	3	3	21	13	
	6	18	4	1	2	3	21	11	
	7	19	4	1	2	2	21	9	
	8	24	4	1	2	2	21	5	
	9	27	4	1	2	2	21	4	
4	1	4	5	4	5	4	13	26	
	2	8	4	4	4	4	12	25	
	3	11	4	4	4	3	12	25	
	4	13	4	4	4	3	12	24	
	5	18	4	3	4	3	12	24	
	6	22	3	3	4	2	12	24	
	7	29	3	3	4	2	12	23	
	8	29	3	2	4	1	12	25	
	9	30	3	2	4	1	12	24	
5	1	5	2	5	5	4	25	22	
	2	9	2	4	4	4	21	21	
	3	18	2	4	4	3	20	21	
	4	22	2	4	4	3	17	20	
	5	26	2	3	4	2	17	20	
	6	27	2	3	4	2	13	19	
	7	28	2	3	4	1	12	19	
	8	29	2	3	4	1	9	17	
	9	30	2	3	4	1	9	16	
6	1	2	5	4	3	4	14	16	
	2	9	4	4	2	3	14	15	
	3	10	4	4	2	3	13	14	
	4	13	4	4	2	3	12	14	
	5	24	3	4	1	2	12	11	
	6	25	3	4	1	2	11	11	
	7	27	3	4	1	2	10	9	
	8	28	2	4	1	2	10	8	
	9	30	2	4	1	2	9	6	
7	1	7	2	2	3	3	22	28	
	2	8	2	2	3	3	21	28	
	3	9	2	2	3	3	19	27	
	4	10	2	2	3	2	19	25	
	5	14	2	2	2	2	17	24	
	6	20	2	2	2	2	14	22	
	7	24	2	2	2	1	13	21	
	8	28	2	2	2	1	12	20	
	9	30	2	2	2	1	10	19	
8	1	3	5	3	5	2	13	8	
	2	7	4	2	4	2	11	8	
	3	10	4	2	4	2	10	8	
	4	17	4	2	4	2	10	7	
	5	18	4	2	4	2	8	6	
	6	19	4	2	4	2	7	6	
	7	23	4	2	4	2	4	6	
	8	26	4	2	4	2	4	5	
	9	30	4	2	4	2	1	5	
9	1	4	4	3	4	3	8	16	
	2	6	4	3	4	2	7	15	
	3	9	4	3	4	2	5	15	
	4	16	4	3	3	2	4	14	
	5	21	4	3	3	2	4	13	
	6	22	4	2	3	2	4	13	
	7	23	4	2	2	2	2	13	
	8	24	4	2	2	2	2	12	
	9	29	4	2	2	2	1	11	
10	1	9	5	3	4	5	14	27	
	2	12	4	2	4	4	13	27	
	3	13	4	2	4	4	13	26	
	4	17	4	2	3	3	12	27	
	5	18	3	2	3	3	12	27	
	6	19	3	1	3	3	11	27	
	7	19	2	1	2	2	11	28	
	8	20	2	1	2	2	11	27	
	9	21	2	1	2	2	10	27	
11	1	11	2	4	2	5	9	19	
	2	12	2	4	2	4	8	16	
	3	21	2	4	2	4	8	14	
	4	23	2	3	2	4	8	13	
	5	25	2	3	1	3	7	12	
	6	26	2	3	1	3	7	11	
	7	28	2	3	1	2	7	9	
	8	29	2	2	1	2	7	7	
	9	30	2	2	1	2	7	4	
12	1	1	2	3	3	3	20	18	
	2	2	1	3	3	2	19	16	
	3	7	1	3	3	2	18	15	
	4	10	1	3	3	2	18	13	
	5	16	1	2	3	2	17	12	
	6	25	1	2	3	2	16	10	
	7	26	1	2	3	2	14	8	
	8	29	1	1	3	2	14	6	
	9	30	1	1	3	2	13	4	
13	1	1	4	5	4	5	10	5	
	2	5	3	4	3	5	9	5	
	3	6	3	4	3	5	9	4	
	4	7	3	4	3	5	9	3	
	5	9	3	3	2	5	9	4	
	6	13	3	3	2	5	9	3	
	7	18	3	3	2	5	9	2	
	8	22	3	3	1	5	9	3	
	9	26	3	3	1	5	9	2	
14	1	2	5	5	2	4	18	26	
	2	10	4	4	1	4	17	25	
	3	11	4	4	1	3	16	24	
	4	14	3	4	1	3	15	22	
	5	21	2	3	1	3	14	22	
	6	22	2	3	1	2	13	22	
	7	23	1	3	1	2	12	20	
	8	24	1	3	1	1	12	20	
	9	25	1	3	1	1	11	19	
15	1	2	4	2	4	3	23	7	
	2	5	4	2	4	3	23	5	
	3	10	4	2	4	3	22	5	
	4	12	3	2	4	3	22	4	
	5	13	3	1	4	3	21	4	
	6	23	2	1	4	3	20	4	
	7	24	2	1	4	3	20	3	
	8	26	1	1	4	3	18	3	
	9	28	1	1	4	3	18	2	
16	1	2	4	1	1	4	15	30	
	2	14	4	1	1	4	15	29	
	3	14	3	1	1	4	14	30	
	4	15	3	1	1	4	14	29	
	5	17	3	1	1	4	12	28	
	6	19	2	1	1	4	12	29	
	7	20	2	1	1	4	12	28	
	8	24	1	1	1	4	11	28	
	9	27	1	1	1	4	10	28	
17	1	2	2	1	4	1	19	22	
	2	3	2	1	4	1	16	21	
	3	6	2	1	4	1	14	21	
	4	10	2	1	4	1	12	21	
	5	11	2	1	3	1	11	20	
	6	18	2	1	3	1	9	20	
	7	20	2	1	3	1	7	19	
	8	23	2	1	3	1	5	19	
	9	27	2	1	3	1	4	18	
18	1	7	3	4	3	3	18	21	
	2	10	2	4	3	3	17	20	
	3	11	2	4	3	3	17	19	
	4	14	2	4	3	3	16	18	
	5	16	2	4	3	3	15	16	
	6	21	2	4	2	2	15	16	
	7	22	2	4	2	2	15	14	
	8	28	2	4	2	2	14	13	
	9	30	2	4	2	2	14	12	
19	1	4	4	2	4	5	22	27	
	2	5	3	2	4	4	19	23	
	3	9	3	2	4	3	19	22	
	4	11	3	2	3	3	15	21	
	5	17	2	2	3	2	12	18	
	6	23	2	2	3	2	12	15	
	7	24	2	2	3	2	10	14	
	8	25	1	2	2	1	7	12	
	9	26	1	2	2	1	6	11	
20	1	4	4	5	5	5	27	5	
	2	7	4	4	4	4	25	4	
	3	8	4	4	4	4	24	4	
	4	21	4	4	4	4	20	4	
	5	24	4	3	3	4	18	3	
	6	25	4	3	3	4	16	3	
	7	26	4	3	2	4	14	3	
	8	27	4	3	2	4	14	2	
	9	30	4	3	2	4	11	3	
21	1	3	4	2	1	4	4	13	
	2	4	3	2	1	3	4	11	
	3	8	3	2	1	3	4	10	
	4	9	3	2	1	3	4	9	
	5	15	3	2	1	2	3	9	
	6	20	3	2	1	2	3	8	
	7	25	3	2	1	2	3	7	
	8	27	3	2	1	2	2	7	
	9	28	3	2	1	2	2	6	
22	1	9	5	4	3	3	18	27	
	2	9	4	3	3	2	18	28	
	3	10	4	3	3	2	18	27	
	4	15	4	3	3	2	18	26	
	5	17	4	3	2	2	18	27	
	6	19	3	2	2	1	18	27	
	7	26	3	2	2	1	18	26	
	8	27	3	2	2	1	18	25	
	9	30	3	2	2	1	18	24	
23	1	1	2	4	3	3	16	28	
	2	2	2	4	2	3	13	27	
	3	3	2	4	2	3	13	26	
	4	13	2	4	2	2	12	26	
	5	14	2	3	2	2	10	26	
	6	15	2	3	1	2	10	25	
	7	17	2	3	1	1	9	24	
	8	25	2	2	1	1	8	24	
	9	30	2	2	1	1	7	24	
24	1	10	3	1	5	5	19	19	
	2	11	3	1	4	4	19	19	
	3	12	3	1	4	4	19	17	
	4	16	3	1	3	4	19	16	
	5	19	3	1	2	3	18	13	
	6	22	3	1	2	3	18	11	
	7	23	3	1	2	3	18	10	
	8	24	3	1	1	3	17	9	
	9	26	3	1	1	3	17	7	
25	1	3	4	5	2	1	26	23	
	2	7	4	4	2	1	24	23	
	3	14	4	3	2	1	22	23	
	4	16	4	3	2	1	18	23	
	5	18	4	2	1	1	13	22	
	6	19	4	2	1	1	12	22	
	7	25	4	1	1	1	7	22	
	8	26	4	1	1	1	6	22	
	9	28	4	1	1	1	3	22	
26	1	2	5	2	4	5	22	6	
	2	3	5	1	4	5	21	6	
	3	4	5	1	4	5	21	5	
	4	10	5	1	4	5	21	4	
	5	12	5	1	3	5	20	4	
	6	15	5	1	3	5	20	3	
	7	16	5	1	2	5	19	3	
	8	18	5	1	2	5	19	2	
	9	25	5	1	2	5	19	1	
27	1	1	2	4	4	4	22	19	
	2	6	2	3	4	4	20	16	
	3	7	2	3	4	4	19	15	
	4	10	2	3	4	4	16	13	
	5	11	1	3	4	4	14	12	
	6	12	1	2	4	4	11	9	
	7	15	1	2	4	4	9	8	
	8	17	1	2	4	4	4	6	
	9	24	1	2	4	4	2	5	
28	1	1	3	5	1	2	20	17	
	2	5	3	4	1	1	18	15	
	3	6	3	4	1	1	18	14	
	4	14	3	4	1	1	18	13	
	5	15	3	4	1	1	17	11	
	6	17	3	3	1	1	16	10	
	7	18	3	3	1	1	15	10	
	8	23	3	3	1	1	14	8	
	9	28	3	3	1	1	14	6	
29	1	1	2	4	3	3	23	5	
	2	3	2	3	3	3	21	4	
	3	4	2	3	3	3	21	3	
	4	18	2	2	3	3	19	4	
	5	19	2	2	2	3	18	3	
	6	23	2	2	2	2	18	3	
	7	24	2	2	1	2	17	3	
	8	25	2	1	1	2	15	3	
	9	30	2	1	1	2	15	2	
30	1	5	1	4	2	2	18	25	
	2	8	1	4	2	2	18	20	
	3	16	1	4	2	2	15	19	
	4	25	1	4	2	2	15	18	
	5	26	1	4	2	2	14	15	
	6	27	1	3	2	2	11	12	
	7	28	1	3	2	2	9	10	
	8	29	1	3	2	2	8	7	
	9	30	1	3	2	2	7	6	
31	1	2	3	3	1	2	18	11	
	2	7	3	3	1	1	16	10	
	3	9	3	3	1	1	13	8	
	4	21	3	3	1	1	11	8	
	5	24	3	3	1	1	10	6	
	6	25	2	3	1	1	8	5	
	7	26	2	3	1	1	7	5	
	8	27	2	3	1	1	5	4	
	9	28	2	3	1	1	2	3	
32	1	4	3	5	1	3	5	23	
	2	8	3	4	1	3	4	22	
	3	9	3	4	1	3	3	22	
	4	12	3	4	1	2	3	20	
	5	16	3	3	1	2	3	20	
	6	17	3	3	1	2	2	19	
	7	18	3	3	1	1	1	18	
	8	19	3	3	1	1	1	17	
	9	22	3	3	1	1	1	15	
33	1	5	5	3	4	3	15	18	
	2	6	4	3	4	2	12	18	
	3	10	4	3	4	2	11	14	
	4	14	4	3	4	2	10	12	
	5	15	3	2	4	1	10	10	
	6	21	3	2	4	1	9	9	
	7	24	2	2	4	1	7	6	
	8	25	2	2	4	1	6	5	
	9	29	2	2	4	1	5	3	
34	1	2	4	2	5	3	27	29	
	2	5	3	1	4	2	26	25	
	3	7	3	1	4	2	26	24	
	4	10	3	1	3	2	26	20	
	5	11	2	1	2	2	24	17	
	6	12	2	1	2	2	24	16	
	7	19	1	1	2	2	23	13	
	8	28	1	1	1	2	23	12	
	9	30	1	1	1	2	22	9	
35	1	5	5	3	3	2	26	21	
	2	10	4	3	3	2	24	20	
	3	15	4	3	3	2	22	17	
	4	21	4	3	3	2	22	14	
	5	24	4	2	3	2	19	14	
	6	25	3	2	3	2	19	12	
	7	26	3	2	3	2	16	9	
	8	28	3	2	3	2	15	7	
	9	30	3	2	3	2	15	6	
36	1	6	1	4	4	2	25	26	
	2	11	1	3	4	2	22	24	
	3	12	1	3	4	2	20	22	
	4	13	1	3	4	2	20	20	
	5	19	1	2	4	2	17	19	
	6	20	1	2	4	2	16	16	
	7	23	1	2	4	2	15	13	
	8	24	1	2	4	2	13	12	
	9	25	1	2	4	2	11	11	
37	1	6	4	3	4	3	21	26	
	2	13	4	3	4	3	21	25	
	3	14	4	3	3	3	20	24	
	4	15	3	3	3	2	19	20	
	5	16	2	2	2	2	18	20	
	6	17	2	2	2	2	17	16	
	7	25	1	2	2	2	16	15	
	8	28	1	2	1	1	15	14	
	9	30	1	2	1	1	14	11	
38	1	4	4	3	5	5	29	12	
	2	5	3	3	5	4	24	11	
	3	6	3	3	5	3	23	10	
	4	7	3	3	5	3	18	10	
	5	9	3	3	5	2	14	9	
	6	12	3	2	5	2	14	9	
	7	14	3	2	5	2	10	8	
	8	15	3	2	5	1	7	8	
	9	22	3	2	5	1	5	8	
39	1	5	2	3	1	5	26	27	
	2	9	2	2	1	4	26	26	
	3	12	2	2	1	4	23	25	
	4	13	2	2	1	4	21	24	
	5	16	2	1	1	4	18	21	
	6	17	2	1	1	3	17	20	
	7	18	2	1	1	3	15	17	
	8	28	2	1	1	3	12	15	
	9	29	2	1	1	3	12	14	
40	1	1	5	4	5	3	9	16	
	2	2	5	4	4	3	9	15	
	3	7	5	4	4	3	9	13	
	4	11	5	4	4	3	9	12	
	5	19	5	4	4	3	8	10	
	6	26	5	4	4	2	8	9	
	7	27	5	4	4	2	8	8	
	8	28	5	4	4	2	8	7	
	9	29	5	4	4	2	8	6	
41	1	3	5	4	3	4	16	29	
	2	5	4	3	2	3	14	29	
	3	12	4	3	2	3	13	27	
	4	14	4	2	2	3	13	26	
	5	19	3	2	2	2	11	26	
	6	20	3	2	1	2	9	25	
	7	27	2	2	1	1	9	23	
	8	28	2	1	1	1	7	23	
	9	29	2	1	1	1	6	22	
42	1	1	3	3	5	4	9	7	
	2	6	2	2	4	4	8	6	
	3	7	2	2	4	4	8	5	
	4	8	2	2	4	4	7	5	
	5	19	1	2	3	4	7	4	
	6	26	1	2	3	4	6	4	
	7	27	1	2	3	4	6	2	
	8	28	1	2	3	4	5	2	
	9	29	1	2	3	4	5	1	
43	1	2	3	3	4	4	10	25	
	2	3	3	3	4	4	10	24	
	3	5	3	3	4	3	10	22	
	4	12	3	3	4	3	10	21	
	5	16	2	3	4	2	10	20	
	6	18	2	3	4	2	10	19	
	7	20	1	3	4	2	10	18	
	8	22	1	3	4	1	10	18	
	9	29	1	3	4	1	10	17	
44	1	4	4	2	5	3	12	13	
	2	7	3	2	4	3	11	12	
	3	8	3	2	4	3	11	11	
	4	9	3	2	4	3	9	11	
	5	11	2	2	3	3	9	10	
	6	16	2	1	3	3	7	9	
	7	17	2	1	3	3	6	8	
	8	25	2	1	3	3	6	6	
	9	27	2	1	3	3	5	6	
45	1	1	2	4	3	1	21	18	
	2	10	2	3	3	1	19	17	
	3	11	2	3	3	1	18	17	
	4	16	2	3	2	1	17	17	
	5	19	2	3	2	1	15	17	
	6	20	2	3	2	1	12	17	
	7	23	2	3	1	1	12	17	
	8	28	2	3	1	1	8	18	
	9	29	2	3	1	1	8	17	
46	1	1	5	1	2	4	28	3	
	2	5	5	1	2	4	27	2	
	3	6	5	1	2	4	27	1	
	4	7	5	1	2	4	26	2	
	5	10	5	1	2	3	25	2	
	6	11	5	1	2	3	23	2	
	7	17	5	1	2	3	21	2	
	8	22	5	1	2	3	20	2	
	9	23	5	1	2	3	19	2	
47	1	1	1	4	5	5	16	29	
	2	2	1	4	4	4	15	29	
	3	3	1	4	4	4	15	28	
	4	5	1	3	4	3	15	28	
	5	8	1	2	4	3	15	27	
	6	14	1	2	3	3	14	27	
	7	19	1	2	3	2	14	27	
	8	27	1	1	3	2	14	27	
	9	28	1	1	3	2	14	26	
48	1	1	5	2	5	2	25	7	
	2	5	5	2	4	2	21	7	
	3	6	5	2	4	2	21	6	
	4	14	5	2	3	2	18	5	
	5	22	5	2	3	2	16	5	
	6	23	5	1	3	2	15	5	
	7	24	5	1	3	2	13	5	
	8	26	5	1	2	2	11	4	
	9	27	5	1	2	2	9	4	
49	1	1	2	4	2	4	7	21	
	2	2	2	4	1	3	5	21	
	3	4	2	4	1	3	5	19	
	4	17	2	3	1	3	4	19	
	5	20	2	2	1	3	4	18	
	6	24	2	2	1	2	4	17	
	7	25	2	2	1	2	3	16	
	8	26	2	1	1	2	2	14	
	9	28	2	1	1	2	2	13	
50	1	1	3	2	4	5	27	28	
	2	2	3	2	4	4	26	26	
	3	3	3	2	4	4	23	24	
	4	6	3	2	4	4	20	22	
	5	11	2	2	4	4	17	22	
	6	17	2	1	4	4	15	19	
	7	19	2	1	4	4	14	18	
	8	20	1	1	4	4	11	17	
	9	28	1	1	4	4	8	15	
51	1	2	1	2	5	2	17	20	
	2	5	1	2	4	2	15	18	
	3	7	1	2	4	2	15	17	
	4	13	1	2	4	2	14	15	
	5	15	1	1	4	2	12	15	
	6	18	1	1	4	2	11	13	
	7	22	1	1	4	2	11	12	
	8	23	1	1	4	2	9	9	
	9	29	1	1	4	2	9	8	
52	1	0	0	0	0	0	0	0	
************************************************************************

 RESOURCE AVAILABILITIES 
	R 1	R 2	R 3	R 4	N 1	N 2
	19	17	19	19	589	654

************************************************************************
